NAME: I3708-n49-k4
COMMENT : (Fake et al, No of trucks: 4, Optimal value: )
TYPE : CVRP
DIMENSION : 49
EDGE_WEIGHT_TYPE : EUC_2D
CAPACITY : 48
NODE_COORD_SECTION
1 446 955
2 578 681
3 881 513
4 250 575
5 365 224
6 195 925
7 489 454
8 682 518
9 532 393
10 51 23
11 448 516
12 148 364
13 841 191
14 671 414
15 461 648
16 571 628
17 385 361
18 587 757
19 5 913
20 385 137
21 380 168
22 219 303
23 170 690
24 810 35
25 0 304
26 701 906
27 437 138
28 973 166
29 298 685
30 107 434
31 784 733
32 403 897
33 375 527
34 356 613
35 275 639
36 101 559
37 635 578
38 99 967
39 347 242
40 83 551
41 783 318
42 546 529
43 153 100
44 30 684
45 176 478
46 809 712
47 954 754
48 681 250
49 467 306
DEMAND_SECTION
1 0
2 1
3 3
4 4
5 5
6 5
7 3
8 3
9 3
10 3
11 4
12 3
13 5
14 4
15 2
16 5
17 3
18 4
19 3
20 2
21 5
22 1
23 1
24 1
25 2
26 1
27 3
28 2
29 3
30 4
31 5
32 3
33 3
34 4
35 5
36 4
37 1
38 3
39 5
40 4
41 2
42 2
43 4
44 4
45 5
46 5
47 5
48 4
49 5
DEPOT_SECTION
 1
 -1
 EOF 